instances/knapsack/discrete_knapsack_uncertainty/knapsack_70_4.kp
78980
70
337

93 9.3 47
1 0.1 88
87 8.7 9
4 0.4 93
65 6.5 35
91 9.1 26
26 2.6 51
73 7.3 33
54 5.4 72
47 4.7 32
21 2.1 72
44 4.4 40
37 3.7 80
13 1.3 99
22 2.2 76
14 1.4 45
98 9.8 95
57 5.7 87
62 6.2 88
75 7.5 11
50 5.0 23
13 1.3 96
57 5.7 1
92 9.2 25
58 5.8 50
97 9.7 48
59 5.9 25
45 4.5 77
63 6.3 91
28 2.8 74
27 2.7 6
57 5.7 1
89 8.9 1
82 8.2 40
41 4.1 21
10 1.0 58
21 2.1 54
70 7.0 88
1 0.1 80
44 4.4 61
80 8.0 49
83 8.3 51
75 7.5 19
91 9.1 12
80 8.0 72
12 1.2 48
87 8.7 86
51 5.1 18
8 0.8 78
69 6.9 31
72 7.2 92
53 5.3 40
74 7.4 36
53 5.3 10
30 3.0 13
45 4.5 67
86 8.6 48
12 1.2 85
37 3.7 33
71 7.1 56
26 2.6 73
12 1.2 87
61 6.1 91
64 6.4 47
33 3.3 12
13 1.3 30
22 2.2 42
84 8.4 87
21 2.1 22
51 5.1 43

30522
322

[1.312085124150732 1.6491456157268634 0.031022813800038393 0.6462204842703841 0.2550970966827072 3.9183328242689743 4.541990480221438 1.2076793318386188 2.9671926282953693 2.652502730383327 3.39347810578087 2.20000010538384 3.739953515544551 3.7451933492367244 2.201023349402979 4.39974624723429 0.9933361211560052 3.9351073632204483 0.8015335710078393 1.4026725542146814 0.31261944597752056 3.5030906914311313 1.0367989925203147 0.17508124898392688 3.0825750637167935 3.0206811625610896 2.7261431352929835 2.5158793281439475 2.115291389289072 2.371565658059032 0.017629768378338295 0.17389523317552016 4.154439292386709 0.2625799015443414 1.347139973079792 3.562781406939413 3.8264259674605214 1.7376556574565556 3.5402275622618786 0.05832363652277277 3.290640841592665 1.461578668261119 3.71384871506237 0.30673253291625197 2.8610270926444 0.16704005150788756 3.344836582904515 3.358622485883255 4.081214864262453 2.01678507671124 3.311886735948501 3.0969949949507227 1.41468424421916 1.0020999881773753 1.2157879021151998 0.7231178939237256 4.14383759395434 3.1688494845349653 0.6231754592006548 0.7539571297292139 3.0896520643946195 4.344641586543172 4.037991053396136 0.9913810966004287 3.44753446255197 1.1564196217442124 0.3303728631503867 4.414173964861025 0.37330305299922256 3.963633701489193]

[20 72 78 95 48 10 45 80 5 38 48 43 48 84 37 65 61 68 97 98 25 72 72 83 9 32 66 72 2 7 22 96 60 73 16 13 56 9 68 39 43 38 18 78 79 63 70 2 43 4 35 64 17 24 9 40 57 11 12 58 89 63 28 59 80 56 53 39 92 30]
